Route #1: 20 107 54 96 71 45 3 78 39 42 2 49 70 55 93 16 84 94 119 61 116
Route #2: 43 76 113 98 13 85 89 51 63 104 105 101 47 5 41 103 17 18 44 9 99
Route #3: 56 1 24 37 57 77 100 59 22 4 95 60 68 53 81 69 26 117 108 66 46
Route #4: 14 36 115 48 86 65 74 110 106 7 97 75 19 28 83 15 58 23 64 82 109
Route #5: 80 32 91 21 12 8 114 90 35 92 6 11 27 34 111 102 72 87 62 40 112
Route #6: 50 52 38 31 73 25 67 30 33 118 79 29 10 88
Cost 14976
